nBusiness = 60;
nMeetings = 237;
nTables = 25;
nTotalSlots = 10;
nMorningSlots = 10;

requested = [|1, 56,3, 
|1, 2,3, 
|1, 25,3, 
|1, 36,3, 
|1, 51,3, 
|46, 1,3, 
|18, 1,3, 
|14, 1,3, 
|14, 2,3, 
|3, 22,3, 
|4, 15,3, 
|4, 43,3, 
|17, 4,3, 
|14, 4,3, 
|6, 4,3, 
|4, 45,3, 
|4, 59,3, 
|57, 4,3, 
|5, 48,3, 
|9, 7,3, 
|9, 8,3, 
|9, 11,3, 
|9, 13,3, 
|10, 6,3, 
|10, 13,3, 
|10, 45,3, 
|10, 51,3, 
|10, 11,3, 
|14, 3,3, 
|14, 7,3, 
|16, 12,3, 
|16, 15,3, 
|16, 29,3, 
|16, 44,3, 
|17, 6,3, 
|17, 60,3, 
|57, 17,3, 
|14, 17,3, 
|18, 15,3, 
|18, 41,3, 
|20, 15,3, 
|20, 29,3, 
|20, 25,3, 
|20, 35,3, 
|20, 45,3, 
|20, 48,3, 
|24, 20,3, 
|21, 2,3, 
|21, 16,3, 
|21, 19,3, 
|21, 41,3, 
|21, 45,3, 
|31, 21,3, 
|23, 2,3, 
|23, 12,3, 
|23, 13,3, 
|23, 15,3, 
|23, 45,3, 
|23, 48,3, 
|7, 23,3, 
|23, 3,3, 
|24, 6,3, 
|24, 11,3, 
|24, 16,3, 
|24, 33,3, 
|24, 35,3, 
|24, 37,3, 
|24, 51,3, 
|24, 55,3, 
|24, 5,3, 
|25, 37,3, 
|25, 5,3, 
|25, 7,3, 
|25, 12,3, 
|25, 15,3, 
|44, 25,3, 
|26, 22,3, 
|26, 30,3, 
|26, 38,3, 
|26, 39,3, 
|26, 47,3, 
|26, 14,3, 
|40, 26,3, 
|46, 26,3, 
|21, 26,3, 
|18, 26,3, 
|40, 27,3, 
|10, 27,3, 
|57, 27,3, 
|20, 27,3, 
|44, 27,3, 
|14, 27,3, 
|28, 5,3, 
|28, 7,3, 
|28, 13,3, 
|28, 6,3, 
|28, 12,3, 
|14, 28,3, 
|29, 15,3, 
|29, 56,3, 
|29, 37,3, 
|2, 29,3, 
|17, 29,3, 
|55, 29,3, 
|53, 29,3, 
|40, 30,3, 
|57, 30,3, 
|20, 30,3, 
|31, 13,3, 
|31, 5,3, 
|31, 7,3, 
|14, 31,3, 
|6, 31,3, 
|33, 29,3, 
|33, 37,3, 
|33, 44,3, 
|17, 33,3, 
|6, 33,3, 
|25, 33,3, 
|10, 33,3, 
|9, 33,3, 
|35, 7,3, 
|35, 39,3, 
|35, 45,3, 
|36, 12,3, 
|36, 13,3, 
|36, 32,3, 
|2, 36,3, 
|16, 36,3, 
|57, 36,3, 
|9, 37,3, 
|37, 32,3, 
|38, 37,3, 
|38, 54,3, 
|1, 38,3, 
|23, 38,3, 
|20, 38,3, 
|21, 38,3, 
|10, 38,3, 
|18, 38,3, 
|40, 38,3, 
|40, 45,3, 
|1, 40,3, 
|40, 15,3, 
|46, 40,3, 
|52, 40,3, 
|41, 6,3, 
|41, 7,3, 
|41, 8,3, 
|41, 11,3, 
|42, 2,3, 
|42, 7,3, 
|42, 39,3, 
|42, 41,3, 
|42, 25,3, 
|21, 42,3, 
|37, 42,3, 
|55, 42,3, 
|42, 3,3, 
|42, 8,3, 
|43, 8,3, 
|43, 12,3, 
|43, 44,3, 
|3, 43,3, 
|43, 7,3, 
|43, 49,3, 
|16, 43,3, 
|18, 43,3, 
|37, 43,3, 
|44, 51,3, 
|44, 2,3, 
|44, 15,3, 
|44, 6,3, 
|46, 2,3, 
|46, 3,3, 
|46, 16,3, 
|46, 48,3, 
|46, 49,3, 
|52, 46,3, 
|47, 22,3, 
|47, 39,3, 
|49, 56,3, 
|28, 49,3, 
|53, 49,3, 
|12, 49,3, 
|9, 49,3, 
|50, 18,3, 
|50, 33,3, 
|50, 34,3, 
|50, 41,3, 
|40, 50,3, 
|46, 50,3, 
|35, 51,3, 
|52, 21,3, 
|52, 2,3, 
|52, 4,3, 
|52, 5,3, 
|52, 6,3, 
|52, 10,3, 
|52, 13,3, 
|3, 53,3, 
|54, 41,3, 
|54, 5,3, 
|54, 10,3, 
|54, 15,3, 
|54, 49,3, 
|54, 52,3, 
|31, 54,3, 
|51, 54,3, 
|54, 23,3, 
|55, 31,3, 
|55, 8,3, 
|55, 45,3, 
|55, 51,3, 
|12, 55,3, 
|56, 5,3, 
|57, 34,3, 
|57, 39,3, 
|57, 51,3, 
|9, 58,3, 
|58, 12,3, 
|58, 22,3, 
|58, 32,3, 
|58, 37,3, 
|58, 44,3, 
|59, 58,3, 
|18, 58,3, 
|41, 58,3, 
|59, 49,3, 
|59, 9,3, 
|59, 11,3, 
|59, 12,3, 
|16, 59,3, 
|60, 34,3, 
|60, 48,3, 
|60, 51,3, 
|60, 39,3, 
|];

meetingsxBusiness = [{1,2,3,4,5,6,7,8,9,136,144},
{1,3,10,49,55,103,129,152,172,175,196},
{1,11,30,62,160,165,176,202},
{1,12,13,14,15,16,17,18,19,197},
{1,20,71,73,94,111,198,204,217},
{1,16,25,36,63,97,114,119,148,174,199},
{1,21,31,61,74,95,112,123,149,153,166},
{1,22,150,161,162,213},
{1,21,22,23,24,122,132,187,221,231},
{1,25,26,27,28,29,89,121,140,200,205},
{1,23,29,64,151,232},
{1,32,56,75,98,126,163,186,216,222,233},
{1,24,26,57,96,110,127,201},
{1,9,10,15,30,31,39,83,93,99,113},
{1,12,33,40,42,58,76,100,145,173,206},
{1,32,33,34,35,50,65,130,168,177,234},
{1,14,36,37,38,39,104,118},
{1,8,40,41,87,141,169,188,228},
{1,51},
{1,42,43,44,45,46,47,48,91,109,138},
{1,49,50,51,52,53,54,86,139,157,195},
{1,11,78,181,223},
{1,55,56,57,58,59,60,61,62,137,211},
{1,48,63,64,65,66,67,68,69,70,71},
{1,4,44,72,73,74,75,76,77,120,156},
{1,78,79,80,81,82,83,84,85,86,87},
{1,88,89,90,91,92,93},
{1,94,95,96,97,98,99,184},
{1,34,43,100,101,102,103,104,105,106,115},
{1,79,107,108,109},
{1,54,110,111,112,113,114,209,212},
{1,128,133,224},
{1,66,115,116,117,118,119,120,121,122,189},
{1,190,218,235},
{1,45,67,123,124,125,194},
{1,5,126,127,128,129,130,131},
{1,68,72,102,116,132,133,134,158,170,225},
{1,80,134,135,136,137,138,139,140,141,142},
{1,81,124,154,182,219,238},
{1,84,88,107,142,143,144,145,146,147,192},
{1,41,52,148,149,150,151,155,191,203,229},
{1,152,153,154,155,156,157,158,159,160,161},
{1,13,162,163,164,165,166,167,168,169,170},
{1,35,77,92,117,164,171,172,173,174,226},
{1,17,27,46,53,59,125,143,214},
{1,7,85,146,175,176,177,178,179,180,193},
{1,82,181,182},
{1,20,47,60,178,236},
{1,167,179,183,184,185,186,187,207,230},
{1,188,189,190,191,192,193},
{1,6,28,69,171,194,210,215,220,237},
{1,147,180,195,196,197,198,199,200,201,208},
{1,106,185,202},
{1,135,203,204,205,206,207,208,209,210,211},
{1,70,105,159,212,213,214,215,216},
{1,2,101,183,217},
{1,19,38,90,108,131,218,219,220},
{1,221,222,223,224,225,226,227,228,229},
{1,18,227,230,231,232,233,234},
{1,37,235,236,237,238}];

nMeetingsBusiness = [10,10,7,9,8,10,10,5,9,10,5,10,7,10,10,10,7,8,1,10,10,4,10,10,10,10,6,7,10,4,8,3,10,3,6,7,10,10,6,10,10,10,10,10,8,10,3,5,9,6,9,10,3,10,8,4,8,9,7,5];

forbidden = [{},
{2},
{},
{},
{},
{},
{},
{},
{},
{},
{8},
{},
{},
{},
{},
{},
{},
{},
{},
{},
{},
{},
{},
{},
{},
{},
{},
{},
{},
{},
{2},
{},
{},
{},
{},
{3},
{},
{},
{},
{},
{},
{},
{},
{},
{},
{},
{},
{},
{},
{},
{},
{},
{},
{},
{},
{},
{},
{},
{},
{}];

fixed = [0,0,0,0,0,0,0,0,0,0,0,0,0,0,0,0,0,0,0,0,0,0,0,0,0,0,0,0,0,0,0,0,0,0,0,0,0,0,0,0,0,0,0,0,0,0,0,0,0,0,0,0,0,0,0,0,0,0,0,0,0,0,0,0,0,0,0,0,0,0,0,0,0,0,0,0,0,0,0,0,0,0,0,0,0,0,0,0,0,0,0,0,0,0,0,0,0,0,0,0,0,0,0,0,0,0,0,0,0,0,0,0,0,0,0,0,0,0,0,0,0,0,0,0,0,0,0,0,0,0,0,0,0,0,0,0,0,0,0,0,0,0,0,0,0,0,0,0,0,0,0,0,0,0,0,0,0,0,0,0,0,0,0,0,0,0,0,0,0,0,0,0,0,0,0,0,0,0,0,0,0,0,0,0,0,0,0,0,0,0,0,0,0,0,0,0,0,0,0,0,0,0,0,0,0,0,0,0,0,0,0,0,0,0,0,0,0,0,0,0,0,0,0,0,0,0,0,0,0,0,0,0,0,0,0,0,0];

precedences = [{},
{},
{},
{},
{},
{},
{},
{},
{},
{},
{},
{},
{},
{},
{},
{},
{},
{},
{},
{},
{},
{},
{},
{},
{},
{},
{},
{},
{},
{},
{},
{},
{},
{},
{},
{},
{},
{},
{},
{},
{},
{},
{},
{},
{},
{},
{},
{},
{},
{},
{},
{},
{},
{},
{},
{},
{},
{},
{},
{},
{},
{},
{},
{},
{},
{},
{},
{},
{},
{},
{},
{},
{},
{},
{},
{},
{},
{},
{},
{},
{},
{},
{},
{},
{},
{},
{},
{},
{},
{},
{},
{},
{},
{},
{},
{},
{},
{},
{},
{},
{},
{},
{},
{},
{},
{},
{},
{},
{},
{},
{},
{},
{},
{},
{},
{},
{},
{},
{},
{},
{},
{},
{},
{},
{},
{},
{},
{},
{},
{},
{},
{},
{},
{},
{},
{},
{},
{},
{},
{},
{},
{},
{},
{},
{},
{},
{},
{},
{},
{},
{},
{},
{},
{},
{},
{},
{},
{},
{},
{},
{},
{},
{},
{},
{},
{},
{},
{},
{},
{},
{},
{},
{},
{},
{},
{},
{},
{},
{},
{},
{},
{},
{},
{},
{},
{},
{},
{},
{},
{},
{},
{},
{},
{},
{},
{},
{},
{},
{},
{},
{},
{},
{},
{},
{},
{},
{},
{},
{},
{},
{},
{},
{},
{},
{},
{},
{},
{},
{},
{},
{},
{},
{},
{},
{},
{},
{},
{},
{},
{},
{},
{},
{},
{},
{},
{},
{}];

